NAME : n20w160.005.342.tour
COMMENT : Length = 342
COMMENT : Found by LKH [Keld Helsgaun] Tue Nov  7 19:38:46 2017
TYPE : TOUR
DIMENSION : 21
TOUR_SECTION
1
5
2
14
4
9
17
15
16
7
10
11
6
19
13
18
8
21
20
12
3
-1
EOF
